* ENCODING=ISO-8859-1
NAME          CPLEX
ROWS
 N  obj1    
 G  c1      
 G  c2      
 G  c3      
 G  c4      
 G  c5      
 G  c6      
 G  c7      
 G  c8      
 G  c9      
 G  c10     
 G  c11     
 G  c12     
 G  c13     
 G  c14     
 G  c15     
 G  c16     
 G  c17     
 G  c18     
 G  c19     
 G  c20     
 G  c21     
 G  c22     
 G  c23     
 G  c24     
 G  c25     
 G  c26     
 G  c27     
 G  c28     
 G  c29     
 G  c30     
 G  c31     
 G  c32     
 G  c33     
 G  c34     
 G  c35     
 G  c36     
 G  c37     
 G  c38     
 G  c39     
 G  c40     
 G  c41     
 G  c42     
 G  c43     
 G  c44     
 G  c45     
 G  c46     
 G  c47     
 G  c48     
 G  c49     
 G  c50     
COLUMNS
    MARK0000  'MARKER'                 'INTORG'
    x1        obj1                            1
    x1        c15                           120
    x1        c17                           881
    x1        c29                           357
    x1        c45                           327
    x2        obj1                            1
    x2        c4                            614
    x2        c8                            694
    x2        c9                            829
    x2        c46                           142
    x2        c50                           445
    x3        obj1                            1
    x3        c6                            743
    x3        c29                           802
    x3        c31                           721
    x3        c42                           961
    x3        c49                           271
    x4        obj1                            1
    x4        c31                           728
    x4        c47                           546
    x5        obj1                            1
    x5        c1                            441
    x5        c11                           172
    x5        c25                           311
    x5        c26                           325
    x5        c30                           249
    x5        c33                           969
    x5        c42                           940
    x6        obj1                            1
    x6        c15                           254
    x6        c26                           289
    x6        c30                           789
    x6        c36                           969
    x6        c37                           265
    x7        obj1                            1
    x7        c2                            515
    x7        c7                            194
    x7        c27                           208
    x7        c29                           246
    x7        c36                           412
    x7        c37                           820
    x7        c38                           925
    x8        obj1                            1
    x8        c12                           323
    x8        c15                           505
    x8        c16                           727
    x8        c45                           606
    x9        obj1                            1
    x9        c13                           941
    x9        c41                           906
    x10       obj1                            1
    x10       c9                            712
    x10       c11                           145
    x10       c24                           271
    x10       c25                           959
    x10       c31                           813
    x10       c42                           716
    x11       obj1                            1
    x11       c32                           254
    x11       c33                           813
    x12       obj1                            1
    x12       c14                           528
    x12       c21                           634
    x12       c27                           507
    x12       c36                           844
    x12       c49                           502
    x13       obj1                            1
    x13       c17                           494
    x13       c19                           951
    x13       c21                           160
    x13       c24                           168
    x13       c29                           580
    x14       obj1                            1
    x14       c14                           896
    x14       c15                           446
    x14       c18                           559
    x14       c48                           324
    x15       obj1                            1
    x15       c10                           170
    x15       c19                           135
    x15       c21                           293
    x15       c28                           729
    x15       c40                           636
    x15       c44                           346
    x16       obj1                            1
    x16       c23                           972
    x16       c28                           506
    x16       c34                           174
    x16       c43                           499
    x17       obj1                            1
    x17       c21                           198
    x17       c33                           222
    x17       c42                           968
    x18       obj1                            1
    x18       c17                           798
    x18       c22                           582
    x18       c28                           827
    x18       c31                           391
    x18       c34                           408
    x18       c37                           211
    x19       obj1                            1
    x19       c2                            865
    x19       c3                            772
    x19       c18                           881
    x19       c21                           676
    x19       c23                           114
    x19       c30                           951
    x19       c47                           680
    x20       obj1                            1
    x20       c1                            864
    x20       c4                            464
    x20       c15                           479
    x20       c22                           773
    x20       c35                           364
    x20       c45                           976
    x21       obj1                            1
    x21       c11                           750
    x21       c38                           849
    x21       c41                           276
    x21       c42                           664
    x21       c48                           757
    x22       obj1                            1
    x22       c6                            180
    x22       c12                           506
    x22       c16                           365
    x22       c20                           846
    x22       c24                           384
    x22       c27                           542
    x22       c34                           990
    x22       c39                           226
    x22       c49                           524
    x23       obj1                            1
    x23       c6                            512
    x23       c11                           632
    x23       c18                           183
    x23       c24                           159
    x23       c37                           363
    x23       c48                           154
    x24       obj1                            1
    x24       c2                            128
    x24       c6                            677
    x24       c8                            447
    x24       c9                            729
    x24       c18                           957
    x24       c20                           552
    x24       c24                           118
    x24       c45                           201
    x24       c49                           949
    x25       obj1                            1
    x25       c7                            658
    x25       c11                           619
    x25       c15                           313
    x25       c31                           537
    x25       c32                           479
    x25       c46                           677
    x26       obj1                            1
    x26       c8                            826
    x26       c10                           202
    x26       c21                           446
    x26       c27                           633
    x26       c38                           810
    x26       c39                           621
    x26       c42                           911
    x27       obj1                            1
    x27       c39                           696
    x27       c40                           503
    x27       c45                           390
    x28       obj1                            1
    x28       c8                            342
    x28       c48                           612
    x29       obj1                            1
    x29       c4                            835
    x29       c24                           317
    x29       c39                           577
    x29       c43                           543
    x29       c47                           109
    x30       obj1                            1
    x30       c11                           348
    x30       c25                           938
    x30       c26                           954
    x30       c39                           962
    x30       c41                           463
    x31       obj1                            1
    x31       c5                            983
    x31       c18                           904
    x31       c27                           786
    x31       c38                           399
    x31       c50                           613
    x32       obj1                            1
    x32       c4                            438
    x32       c29                           588
    x32       c38                           253
    x33       obj1                            1
    x33       c12                           554
    x33       c24                           472
    x33       c27                           124
    x33       c31                           800
    x33       c35                           194
    x34       obj1                            1
    x34       c10                           154
    x34       c35                           940
    x34       c40                           701
    x35       obj1                            1
    x35       c3                            763
    x35       c46                           788
    x36       obj1                            1
    x36       c4                            967
    x36       c6                            300
    x36       c8                            693
    x36       c33                           966
    x36       c44                           247
    x36       c46                           496
    x37       obj1                            1
    x37       c3                            512
    x37       c7                            371
    x37       c16                           491
    x37       c30                           614
    x37       c33                           899
    x37       c34                           600
    x37       c42                           594
    x37       c43                           835
    x37       c50                           724
    x38       obj1                            1
    x38       c9                            734
    x38       c20                           129
    x38       c22                           305
    x38       c33                           215
    x38       c49                           538
    x39       obj1                            1
    x39       c2                            156
    x39       c5                            731
    x39       c6                            171
    x39       c23                           669
    x39       c29                           975
    x39       c40                           858
    x39       c49                           885
    x40       obj1                            1
    x40       c2                            895
    x40       c10                           973
    x40       c21                           604
    x40       c43                           994
    x41       obj1                            1
    x41       c19                           555
    x41       c27                           207
    x41       c44                           863
    x42       obj1                            1
    x42       c14                           716
    x42       c16                           553
    x42       c28                           461
    x42       c32                           798
    x42       c41                           722
    x42       c48                           905
    x43       obj1                            1
    x43       c2                            343
    x43       c13                           264
    x43       c23                           411
    x44       obj1                            1
    x44       c19                           799
    x44       c23                           692
    x44       c31                           179
    x45       obj1                            1
    x45       c1                            530
    x45       c4                            215
    x45       c6                            326
    x45       c23                           319
    x45       c32                           829
    x45       c34                           854
    x45       c38                           642
    x45       c43                           796
    x45       c46                           332
    x45       c48                           123
    x46       obj1                            1
    x46       c7                            762
    x46       c25                           530
    x46       c35                           786
    x46       c46                           301
    x47       obj1                            1
    x47       c5                            789
    x47       c13                           982
    x47       c28                           193
    x47       c49                           236
    x48       obj1                            1
    x48       c7                            847
    x48       c43                           719
    x48       c46                           554
    x49       obj1                            1
    x49       c1                            650
    x49       c11                           589
    x50       obj1                            1
    x50       c2                            772
    x50       c34                           747
    x50       c39                           843
    MARK0001  'MARKER'                 'INTEND'
RHS
    rhs       c1                           1243
    rhs       c2                           1837
    rhs       c3                           1024
    rhs       c4                           1767
    rhs       c5                           1252
    rhs       c6                           1455
    rhs       c7                           1416
    rhs       c8                           1501
    rhs       c9                           1502
    rhs       c10                           750
    rhs       c11                          1628
    rhs       c12                           692
    rhs       c13                          1094
    rhs       c14                          1070
    rhs       c15                          1059
    rhs       c16                          1068
    rhs       c17                          1087
    rhs       c18                          1742
    rhs       c19                          1220
    rhs       c20                           764
    rhs       c21                          1506
    rhs       c22                           830
    rhs       c23                          1589
    rhs       c24                           945
    rhs       c25                          1369
    rhs       c26                           784
    rhs       c27                          1504
    rhs       c28                          1358
    rhs       c29                          1774
    rhs       c30                          1302
    rhs       c31                          2085
    rhs       c32                          1180
    rhs       c33                          2042
    rhs       c34                          1887
    rhs       c35                          1142
    rhs       c36                          1113
    rhs       c37                           830
    rhs       c38                          1939
    rhs       c39                          1963
    rhs       c40                          1349
    rhs       c41                          1184
    rhs       c42                          2877
    rhs       c43                          2193
    rhs       c44                           728
    rhs       c45                          1250
    rhs       c46                          1645
    rhs       c47                           668
    rhs       c48                          1438
    rhs       c49                          1953
    rhs       c50                           891
BOUNDS
 LI bnd       x1        0
 LI bnd       x2        0
 LI bnd       x3        0
 LI bnd       x4        0
 LI bnd       x5        0
 LI bnd       x6        0
 LI bnd       x7        0
 LI bnd       x8        0
 LI bnd       x9        0
 LI bnd       x10       0
 LI bnd       x11       0
 LI bnd       x12       0
 LI bnd       x13       0
 LI bnd       x14       0
 LI bnd       x15       0
 LI bnd       x16       0
 LI bnd       x17       0
 LI bnd       x18       0
 LI bnd       x19       0
 LI bnd       x20       0
 LI bnd       x21       0
 LI bnd       x22       0
 LI bnd       x23       0
 LI bnd       x24       0
 LI bnd       x25       0
 LI bnd       x26       0
 LI bnd       x27       0
 LI bnd       x28       0
 LI bnd       x29       0
 LI bnd       x30       0
 LI bnd       x31       0
 LI bnd       x32       0
 LI bnd       x33       0
 LI bnd       x34       0
 LI bnd       x35       0
 LI bnd       x36       0
 LI bnd       x37       0
 LI bnd       x38       0
 LI bnd       x39       0
 LI bnd       x40       0
 LI bnd       x41       0
 LI bnd       x42       0
 LI bnd       x43       0
 LI bnd       x44       0
 LI bnd       x45       0
 LI bnd       x46       0
 LI bnd       x47       0
 LI bnd       x48       0
 LI bnd       x49       0
 LI bnd       x50       0
ENDATA
